70
1 0 74
2 0 19
2 1 28
3 0 36
3 1 20
3 2 28
4 0 37
4 1 70
4 2 1
4 3 36
5 0 2
5 1 71
5 2 64
5 3 44
5 4 12
6 0 70
6 1 48
6 2 74
6 3 3
6 4 5
6 5 4
7 0 48
7 1 64
7 2 7
7 3 14
7 4 72
7 5 52
7 6 72
8 0 56
8 1 32
8 2 49
8 3 73
8 4 16
8 5 75
8 6 21
8 7 64
9 0 45
9 1 38
9 2 68
9 3 21
9 4 46
9 5 72
9 6 9
9 7 31
9 8 52
10 0 7
10 1 37
10 2 64
10 3 75
10 4 65
10 5 34
10 6 47
10 7 27
10 8 27
10 9 36
11 0 46
11 1 24
11 2 63
11 3 46
11 4 46
11 5 14
11 6 48
11 7 34
11 8 57
11 9 52
11 10 51
12 0 54
12 1 69
12 2 57
12 3 73
12 4 72
12 5 60
12 6 62
12 7 58
12 8 22
12 9 32
12 10 11
12 11 70
13 0 73
13 1 74
13 2 3
13 3 28
13 4 35
13 5 62
13 6 61
13 7 25
13 8 22
13 9 4
13 10 44
13 11 42
13 12 66
14 0 29
14 1 33
14 2 44
14 3 12
14 4 37
14 5 6
14 6 18
14 7 26
14 8 53
14 9 50
14 10 34
14 11 20
14 12 40
14 13 37
15 0 73
15 1 49
15 2 43
15 3 62
15 4 72
15 5 35
15 6 80
15 7 60
15 8 57
15 9 19
15 10 55
15 11 80
15 12 38
15 13 72
15 14 34
16 0 71
16 1 66
16 2 51
16 3 76
16 4 2
16 5 7
16 6 56
16 7 77
16 8 1
16 9 37
16 10 59
16 11 69
16 12 73
16 13 74
16 14 76
16 15 17
17 0 31
17 1 13
17 2 35
17 3 7
17 4 36
17 5 52
17 6 25
17 7 73
17 8 78
17 9 48
17 10 52
17 11 11
17 12 60
17 13 43
17 14 14
17 15 20
17 16 41
18 0 53
18 1 26
18 2 63
18 3 28
18 4 12
18 5 10
18 6 15
18 7 31
18 8 19
18 9 75
18 10 75
18 11 42
18 12 59
18 13 8
18 14 23
18 15 71
18 16 5
18 17 75
19 0 17
19 1 6
19 2 19
19 3 63
19 4 61
19 5 27
19 6 27
19 7 64
19 8 65
19 9 32
19 10 14
19 11 69
19 12 68
19 13 43
19 14 40
19 15 73
19 16 21
19 17 3
19 18 67
20 0 22
20 1 33
20 2 15
20 3 53
20 4 5
20 5 30
20 6 35
20 7 51
20 8 38
20 9 1
20 10 40
20 11 16
20 12 70
20 13 5
20 14 18
20 15 49
20 16 58
20 17 5
20 18 66
20 19 8
21 0 60
21 1 38
21 2 54
21 3 8
21 4 17
21 5 37
21 6 48
21 7 30
21 8 60
21 9 67
21 10 61
21 11 54
21 12 36
21 13 33
21 14 8
21 15 18
21 16 2
21 17 57
21 18 25
21 19 7
21 20 22
22 0 54
22 1 50
22 2 30
22 3 14
22 4 77
22 5 66
22 6 49
22 7 21
22 8 70
22 9 42
22 10 3
22 11 16
22 12 5
22 13 25
22 14 24
22 15 58
22 16 37
22 17 45
22 18 9
22 19 23
22 20 19
22 21 67
23 0 55
23 1 3
23 2 49
23 3 17
23 4 1
23 5 16
23 6 67
23 7 9
23 8 33
23 9 54
23 10 59
23 11 19
23 12 57
23 13 52
23 14 43
23 15 62
23 16 21
23 17 39
23 18 80
23 19 12
23 20 32
23 21 8
23 22 71
24 0 55
24 1 14
24 2 57
24 3 37
24 4 10
24 5 35
24 6 47
24 7 45
24 8 73
24 9 48
24 10 18
24 11 16
24 12 48
24 13 62
24 14 3
24 15 3
24 16 63
24 17 67
24 18 44
24 19 79
24 20 36
24 21 66
24 22 47
24 23 74
25 0 51
25 1 64
25 2 5
25 3 7
25 4 66
25 5 62
25 6 25
25 7 61
25 8 40
25 9 53
25 10 80
25 11 39
25 12 41
25 13 13
25 14 7
25 15 38
25 16 49
25 17 80
25 18 47
25 19 27
25 20 4
25 21 13
25 22 61
25 23 15
25 24 75
26 0 64
26 1 8
26 2 59
26 3 21
26 4 2
26 5 37
26 6 69
26 7 19
26 8 72
26 9 74
26 10 66
26 11 52
26 12 11
26 13 26
26 14 16
26 15 31
26 16 32
26 17 46
26 18 11
26 19 11
26 20 26
26 21 18
26 22 28
26 23 16
26 24 36
26 25 65
27 0 21
27 1 52
27 2 66
27 3 79
27 4 76
27 5 35
27 6 78
27 7 42
27 8 73
27 9 11
27 10 31
27 11 46
27 12 72
27 13 33
27 14 67
27 15 71
27 16 5
27 17 31
27 18 8
27 19 65
27 20 41
27 21 50
27 22 75
27 23 22
27 24 56
27 25 17
27 26 30
28 0 6
28 1 35
28 2 14
28 3 55
28 4 22
28 5 40
28 6 41
28 7 48
28 8 32
28 9 69
28 10 10
28 11 40
28 12 52
28 13 18
28 14 59
28 15 77
28 16 56
28 17 40
28 18 45
28 19 47
28 20 28
28 21 3
28 22 12
28 23 1
28 24 31
28 25 1
28 26 63
28 27 63
29 0 29
29 1 30
29 2 37
29 3 21
29 4 1
29 5 80
29 6 4
29 7 61
29 8 63
29 9 79
29 10 31
29 11 51
29 12 33
29 13 42
29 14 35
29 15 11
29 16 52
29 17 31
29 18 40
29 19 76
29 20 59
29 21 22
29 22 32
29 23 5
29 24 73
29 25 34
29 26 79
29 27 12
29 28 13
30 0 11
30 1 28
30 2 57
30 3 21
30 4 32
30 5 59
30 6 55
30 7 32
30 8 38
30 9 70
30 10 15
30 11 14
30 12 19
30 13 26
30 14 50
30 15 64
30 16 61
30 17 6
30 18 30
30 19 49
30 20 15
30 21 28
30 22 64
30 23 32
30 24 4
30 25 44
30 26 14
30 27 4
30 28 47
30 29 49
31 0 68
31 1 41
31 2 51
31 3 32
31 4 60
31 5 16
31 6 15
31 7 55
31 8 14
31 9 16
31 10 51
31 11 80
31 12 8
31 13 79
31 14 39
31 15 28
31 16 67
31 17 32
31 18 63
31 19 54
31 20 50
31 21 22
31 22 57
31 23 27
31 24 33
31 25 67
31 26 7
31 27 15
31 28 6
31 29 62
31 30 56
32 0 2
32 1 53
32 2 49
32 3 57
32 4 21
32 5 39
32 6 64
32 7 40
32 8 35
32 9 22
32 10 53
32 11 62
32 12 52
32 13 36
32 14 8
32 15 69
32 16 8
32 17 32
32 18 57
32 19 26
32 20 32
32 21 32
32 22 49
32 23 35
32 24 23
32 25 22
32 26 24
32 27 17
32 28 63
32 29 22
32 30 23
32 31 70
33 0 13
33 1 42
33 2 18
33 3 13
33 4 13
33 5 9
33 6 66
33 7 48
33 8 15
33 9 55
33 10 76
33 11 64
33 12 51
33 13 6
33 14 35
33 15 43
33 16 38
33 17 30
33 18 47
33 19 64
33 20 57
33 21 33
33 22 44
33 23 37
33 24 38
33 25 50
33 26 65
33 27 78
33 28 53
33 29 63
33 30 51
33 31 30
33 32 46
34 0 75
34 1 18
34 2 45
34 3 71
34 4 53
34 5 63
34 6 34
34 7 74
34 8 39
34 9 67
34 10 35
34 11 79
34 12 77
34 13 46
34 14 69
34 15 25
34 16 75
34 17 72
34 18 38
34 19 73
34 20 60
34 21 49
34 22 47
34 23 21
34 24 48
34 25 63
34 26 65
34 27 58
34 28 24
34 29 27
34 30 57
34 31 4
34 32 5
34 33 29
35 0 33
35 1 36
35 2 8
35 3 48
35 4 57
35 5 5
35 6 13
35 7 28
35 8 30
35 9 51
35 10 25
35 11 34
35 12 46
35 13 5
35 14 44
35 15 13
35 16 48
35 17 69
35 18 6
35 19 42
35 20 42
35 21 61
35 22 32
35 23 59
35 24 16
35 25 4
35 26 27
35 27 7
35 28 68
35 29 25
35 30 73
35 31 67
35 32 22
35 33 59
35 34 43
36 0 21
36 1 15
36 2 6
36 3 73
36 4 30
36 5 34
36 6 1
36 7 60
36 8 70
36 9 72
36 10 29
36 11 6
36 12 17
36 13 49
36 14 50
36 15 59
36 16 76
36 17 4
36 18 39
36 19 35
36 20 72
36 21 66
36 22 49
36 23 34
36 24 33
36 25 28
36 26 51
36 27 42
36 28 2
36 29 77
36 30 10
36 31 28
36 32 38
36 33 55
36 34 15
36 35 54
37 0 32
37 1 52
37 2 60
37 3 37
37 4 37
37 5 60
37 6 65
37 7 78
37 8 67
37 9 19
37 10 8
37 11 72
37 12 7
37 13 10
37 14 3
37 15 40
37 16 72
37 17 54
37 18 72
37 19 15
37 20 20
37 21 39
37 22 45
37 23 7
37 24 7
37 25 53
37 26 18
37 27 26
37 28 29
37 29 28
37 30 80
37 31 29
37 32 8
37 33 44
37 34 28
37 35 28
37 36 80
38 0 68
38 1 41
38 2 38
38 3 39
38 4 53
38 5 58
38 6 64
38 7 28
38 8 7
38 9 56
38 10 74
38 11 31
38 12 25
38 13 44
38 14 48
38 15 58
38 16 38
38 17 37
38 18 7
38 19 51
38 20 9
38 21 36
38 22 70
38 23 3
38 24 60
38 25 16
38 26 80
38 27 2
38 28 18
38 29 64
38 30 17
38 31 23
38 32 73
38 33 65
38 34 53
38 35 70
38 36 58
38 37 8
39 0 64
39 1 79
39 2 62
39 3 13
39 4 56
39 5 58
39 6 72
39 7 6
39 8 5
39 9 56
39 10 44
39 11 24
39 12 43
39 13 33
39 14 62
39 15 60
39 16 11
39 17 26
39 18 4
39 19 10
39 20 68
39 21 22
39 22 42
39 23 20
39 24 68
39 25 55
39 26 61
39 27 73
39 28 55
39 29 53
39 30 3
39 31 52
39 32 47
39 33 66
39 34 57
39 35 11
39 36 54
39 37 50
39 38 38
40 0 35
40 1 46
40 2 39
40 3 17
40 4 15
40 5 2
40 6 72
40 7 76
40 8 15
40 9 10
40 10 34
40 11 13
40 12 41
40 13 51
40 14 7
40 15 12
40 16 54
40 17 22
40 18 70
40 19 44
40 20 44
40 21 72
40 22 8
40 23 10
40 24 21
40 25 26
40 26 67
40 27 22
40 28 1
40 29 55
40 30 65
40 31 1
40 32 63
40 33 75
40 34 40
40 35 22
40 36 9
40 37 76
40 38 3
40 39 77
41 0 53
41 1 77
41 2 41
41 3 76
41 4 8
41 5 50
41 6 46
41 7 72
41 8 42
41 9 66
41 10 32
41 11 68
41 12 49
41 13 4
41 14 55
41 15 51
41 16 78
41 17 67
41 18 65
41 19 65
41 20 44
41 21 60
41 22 55
41 23 51
41 24 2
41 25 69
41 26 70
41 27 9
41 28 47
41 29 54
41 30 66
41 31 23
41 32 42
41 33 75
41 34 35
41 35 23
41 36 23
41 37 65
41 38 26
41 39 63
41 40 29
42 0 30
42 1 35
42 2 69
42 3 70
42 4 30
42 5 68
42 6 36
42 7 52
42 8 57
42 9 6
42 10 64
42 11 39
42 12 12
42 13 76
42 14 61
42 15 43
42 16 10
42 17 14
42 18 63
42 19 22
42 20 49
42 21 79
42 22 60
42 23 20
42 24 59
42 25 29
42 26 24
42 27 67
42 28 9
42 29 7
42 30 12
42 31 45
42 32 35
42 33 27
42 34 43
42 35 44
42 36 63
42 37 45
42 38 69
42 39 44
42 40 40
42 41 4
43 0 2
43 1 17
43 2 55
43 3 24
43 4 20
43 5 68
43 6 60
43 7 3
43 8 14
43 9 50
43 10 39
43 11 54
43 12 53
43 13 7
43 14 44
43 15 35
43 16 40
43 17 37
43 18 36
43 19 34
43 20 71
43 21 73
43 22 25
43 23 31
43 24 60
43 25 3
43 26 5
43 27 3
43 28 58
43 29 5
43 30 67
43 31 2
43 32 60
43 33 37
43 34 59
43 35 6
43 36 43
43 37 16
43 38 13
43 39 63
43 40 15
43 41 50
43 42 31
44 0 6
44 1 78
44 2 60
44 3 22
44 4 36
44 5 72
44 6 42
44 7 79
44 8 28
44 9 46
44 10 25
44 11 25
44 12 33
44 13 34
44 14 42
44 15 75
44 16 27
44 17 50
44 18 28
44 19 51
44 20 55
44 21 67
44 22 73
44 23 39
44 24 70
44 25 69
44 26 25
44 27 25
44 28 10
44 29 67
44 30 29
44 31 80
44 32 5
44 33 33
44 34 79
44 35 49
44 36 36
44 37 21
44 38 57
44 39 17
44 40 80
44 41 48
44 42 34
44 43 69
45 0 34
45 1 61
45 2 55
45 3 24
45 4 7
45 5 80
45 6 78
45 7 17
45 8 69
45 9 73
45 10 70
45 11 4
45 12 23
45 13 27
45 14 75
45 15 70
45 16 64
45 17 38
45 18 57
45 19 58
45 20 73
45 21 54
45 22 28
45 23 24
45 24 35
45 25 10
45 26 50
45 27 12
45 28 23
45 29 28
45 30 26
45 31 53
45 32 24
45 33 24
45 34 21
45 35 30
45 36 7
45 37 26
45 38 48
45 39 38
45 40 14
45 41 43
45 42 76
45 43 50
45 44 39
46 0 14
46 1 49
46 2 32
46 3 20
46 4 75
46 5 80
46 6 68
46 7 69
46 8 45
46 9 60
46 10 14
46 11 3
46 12 8
46 13 40
46 14 37
46 15 45
46 16 32
46 17 10
46 18 69
46 19 34
46 20 12
46 21 67
46 22 64
46 23 80
46 24 21
46 25 47
46 26 2
46 27 50
46 28 27
46 29 52
46 30 53
46 31 71
46 32 63
46 33 20
46 34 33
46 35 19
46 36 50
46 37 53
46 38 55
46 39 71
46 40 13
46 41 15
46 42 34
46 43 8
46 44 71
46 45 66
47 0 54
47 1 20
47 2 45
47 3 56
47 4 15
47 5 30
47 6 9
47 7 28
47 8 67
47 9 77
47 10 67
47 11 57
47 12 32
47 13 28
47 14 16
47 15 9
47 16 2
47 17 69
47 18 79
47 19 65
47 20 51
47 21 43
47 22 62
47 23 72
47 24 59
47 25 20
47 26 75
47 27 30
47 28 55
47 29 33
47 30 46
47 31 3
47 32 22
47 33 44
47 34 13
47 35 22
47 36 12
47 37 42
47 38 68
47 39 72
47 40 44
47 41 24
47 42 45
47 43 62
47 44 9
47 45 15
47 46 32
48 0 57
48 1 10
48 2 25
48 3 10
48 4 77
48 5 11
48 6 44
48 7 42
48 8 24
48 9 71
48 10 18
48 11 78
48 12 30
48 13 16
48 14 26
48 15 54
48 16 10
48 17 71
48 18 2
48 19 10
48 20 10
48 21 12
48 22 61
48 23 3
48 24 22
48 25 71
48 26 10
48 27 47
48 28 23
48 29 75
48 30 33
48 31 60
48 32 59
48 33 7
48 34 33
48 35 19
48 36 60
48 37 35
48 38 3
48 39 8
48 40 43
48 41 39
48 42 56
48 43 6
48 44 24
48 45 80
48 46 32
48 47 27
49 0 25
49 1 35
49 2 25
49 3 12
49 4 18
49 5 50
49 6 7
49 7 40
49 8 55
49 9 74
49 10 4
49 11 72
49 12 9
49 13 77
49 14 24
49 15 62
49 16 2
49 17 75
49 18 14
49 19 18
49 20 18
49 21 58
49 22 56
49 23 79
49 24 2
49 25 46
49 26 71
49 27 74
49 28 74
49 29 3
49 30 8
49 31 41
49 32 59
49 33 25
49 34 62
49 35 68
49 36 70
49 37 23
49 38 26
49 39 32
49 40 32
49 41 76
49 42 64
49 43 35
49 44 11
49 45 64
49 46 71
49 47 70
49 48 51
50 0 55
50 1 17
50 2 79
50 3 10
50 4 78
50 5 68
50 6 5
50 7 43
50 8 79
50 9 76
50 10 22
50 11 33
50 12 30
50 13 32
50 14 6
50 15 5
50 16 39
50 17 11
50 18 77
50 19 32
50 20 16
50 21 57
50 22 30
50 23 31
50 24 51
50 25 71
50 26 23
50 27 73
50 28 58
50 29 45
50 30 37
50 31 43
50 32 46
50 33 22
50 34 46
50 35 40
50 36 10
50 37 9
50 38 61
50 39 73
50 40 45
50 41 54
50 42 4
50 43 69
50 44 23
50 45 40
50 46 1
50 47 14
50 48 56
50 49 11
51 0 33
51 1 62
51 2 75
51 3 51
51 4 58
51 5 79
51 6 19
51 7 21
51 8 63
51 9 23
51 10 65
51 11 57
51 12 10
51 13 15
51 14 11
51 15 1
51 16 31
51 17 35
51 18 18
51 19 1
51 20 20
51 21 53
51 22 19
51 23 7
51 24 45
51 25 5
51 26 38
51 27 35
51 28 44
51 29 63
51 30 50
51 31 17
51 32 47
51 33 24
51 34 63
51 35 17
51 36 39
51 37 46
51 38 57
51 39 77
51 40 59
51 41 11
51 42 13
51 43 33
51 44 61
51 45 19
51 46 37
51 47 45
51 48 23
51 49 49
51 50 46
52 0 56
52 1 45
52 2 54
52 3 21
52 4 13
52 5 51
52 6 8
52 7 14
52 8 60
52 9 27
52 10 15
52 11 80
52 12 11
52 13 29
52 14 19
52 15 72
52 16 1
52 17 57
52 18 15
52 19 70
52 20 64
52 21 42
52 22 75
52 23 78
52 24 9
52 25 64
52 26 18
52 27 20
52 28 19
52 29 61
52 30 2
52 31 74
52 32 44
52 33 58
52 34 65
52 35 25
52 36 36
52 37 60
52 38 3
52 39 29
52 40 12
52 41 46
52 42 61
52 43 65
52 44 53
52 45 30
52 46 39
52 47 31
52 48 52
52 49 40
52 50 17
52 51 45
53 0 79
53 1 21
53 2 38
53 3 61
53 4 15
53 5 23
53 6 10
53 7 2
53 8 13
53 9 8
53 10 53
53 11 46
53 12 69
53 13 79
53 14 52
53 15 54
53 16 58
53 17 19
53 18 43
53 19 68
53 20 12
53 21 16
53 22 64
53 23 33
53 24 17
53 25 9
53 26 20
53 27 43
53 28 40
53 29 21
53 30 2
53 31 62
53 32 63
53 33 1
53 34 39
53 35 36
53 36 57
53 37 5
53 38 9
53 39 23
53 40 77
53 41 42
53 42 6
53 43 47
53 44 38
53 45 75
53 46 3
53 47 31
53 48 55
53 49 30
53 50 46
53 51 41
53 52 61
54 0 2
54 1 2
54 2 56
54 3 41
54 4 7
54 5 51
54 6 78
54 7 25
54 8 63
54 9 52
54 10 71
54 11 16
54 12 70
54 13 26
54 14 47
54 15 3
54 16 76
54 17 14
54 18 50
54 19 30
54 20 29
54 21 9
54 22 72
54 23 38
54 24 50
54 25 65
54 26 31
54 27 43
54 28 49
54 29 3
54 30 29
54 31 9
54 32 71
54 33 25
54 34 24
54 35 19
54 36 77
54 37 31
54 38 60
54 39 71
54 40 36
54 41 33
54 42 58
54 43 49
54 44 12
54 45 46
54 46 41
54 47 39
54 48 69
54 49 61
54 50 77
54 51 75
54 52 16
54 53 44
55 0 42
55 1 63
55 2 63
55 3 38
55 4 57
55 5 58
55 6 56
55 7 31
55 8 63
55 9 9
55 10 66
55 11 27
55 12 54
55 13 56
55 14 64
55 15 37
55 16 46
55 17 58
55 18 29
55 19 50
55 20 61
55 21 33
55 22 44
55 23 61
55 24 34
55 25 80
55 26 79
55 27 34
55 28 48
55 29 52
55 30 4
55 31 58
55 32 50
55 33 71
55 34 76
55 35 64
55 36 48
55 37 43
55 38 65
55 39 29
55 40 52
55 41 12
55 42 18
55 43 21
55 44 24
55 45 40
55 46 7
55 47 62
55 48 75
55 49 54
55 50 42
55 51 15
55 52 25
55 53 56
55 54 24
56 0 79
56 1 51
56 2 61
56 3 75
56 4 43
56 5 38
56 6 47
56 7 37
56 8 21
56 9 64
56 10 36
56 11 50
56 12 38
56 13 53
56 14 64
56 15 61
56 16 47
56 17 38
56 18 53
56 19 78
56 20 23
56 21 66
56 22 10
56 23 80
56 24 61
56 25 20
56 26 50
56 27 78
56 28 22
56 29 48
56 30 75
56 31 25
56 32 46
56 33 53
56 34 75
56 35 74
56 36 72
56 37 19
56 38 50
56 39 61
56 40 50
56 41 7
56 42 77
56 43 33
56 44 67
56 45 6
56 46 40
56 47 9
56 48 22
56 49 46
56 50 72
56 51 50
56 52 37
56 53 17
56 54 56
56 55 40
57 0 10
57 1 3
57 2 9
57 3 76
57 4 1
57 5 1
57 6 45
57 7 27
57 8 59
57 9 34
57 10 18
57 11 71
57 12 30
57 13 39
57 14 1
57 15 9
57 16 69
57 17 21
57 18 34
57 19 17
57 20 37
57 21 54
57 22 36
57 23 28
57 24 64
57 25 20
57 26 37
57 27 43
57 28 15
57 29 76
57 30 45
57 31 42
57 32 33
57 33 6
57 34 80
57 35 2
57 36 9
57 37 12
57 38 54
57 39 12
57 40 20
57 41 29
57 42 48
57 43 51
57 44 50
57 45 66
57 46 8
57 47 59
57 48 18
57 49 72
57 50 80
57 51 28
57 52 68
57 53 13
57 54 77
57 55 3
57 56 36
58 0 71
58 1 7
58 2 3
58 3 79
58 4 8
58 5 77
58 6 10
58 7 59
58 8 43
58 9 13
58 10 27
58 11 40
58 12 8
58 13 56
58 14 51
58 15 5
58 16 51
58 17 74
58 18 6
58 19 55
58 20 10
58 21 77
58 22 3
58 23 65
58 24 46
58 25 52
58 26 60
58 27 3
58 28 22
58 29 39
58 30 79
58 31 3
58 32 15
58 33 14
58 34 48
58 35 8
58 36 46
58 37 57
58 38 49
58 39 29
58 40 13
58 41 6
58 42 50
58 43 3
58 44 39
58 45 3
58 46 4
58 47 78
58 48 20
58 49 47
58 50 21
58 51 53
58 52 47
58 53 5
58 54 64
58 55 21
58 56 78
58 57 65
59 0 7
59 1 27
59 2 68
59 3 22
59 4 30
59 5 44
59 6 20
59 7 44
59 8 78
59 9 14
59 10 16
59 11 67
59 12 59
59 13 37
59 14 33
59 15 42
59 16 40
59 17 8
59 18 58
59 19 57
59 20 5
59 21 27
59 22 16
59 23 19
59 24 55
59 25 32
59 26 78
59 27 70
59 28 22
59 29 31
59 30 9
59 31 3
59 32 72
59 33 74
59 34 7
59 35 2
59 36 75
59 37 66
59 38 62
59 39 5
59 40 29
59 41 71
59 42 75
59 43 18
59 44 67
59 45 52
59 46 51
59 47 22
59 48 44
59 49 27
59 50 5
59 51 1
59 52 80
59 53 51
59 54 54
59 55 27
59 56 23
59 57 7
59 58 58
60 0 50
60 1 34
60 2 67
60 3 37
60 4 54
60 5 67
60 6 40
60 7 53
60 8 46
60 9 9
60 10 13
60 11 17
60 12 19
60 13 42
60 14 50
60 15 80
60 16 22
60 17 79
60 18 59
60 19 17
60 20 53
60 21 37
60 22 15
60 23 68
60 24 15
60 25 77
60 26 17
60 27 14
60 28 74
60 29 58
60 30 77
60 31 8
60 32 67
60 33 79
60 34 58
60 35 7
60 36 39
60 37 58
60 38 78
60 39 68
60 40 39
60 41 18
60 42 6
60 43 72
60 44 80
60 45 3
60 46 12
60 47 80
60 48 50
60 49 14
60 50 29
60 51 54
60 52 23
60 53 20
60 54 55
60 55 50
60 56 7
60 57 80
60 58 67
60 59 54
61 0 14
61 1 37
61 2 77
61 3 32
61 4 8
61 5 56
61 6 27
61 7 67
61 8 29
61 9 63
61 10 10
61 11 59
61 12 62
61 13 44
61 14 67
61 15 20
61 16 17
61 17 26
61 18 17
61 19 14
61 20 54
61 21 33
61 22 48
61 23 77
61 24 57
61 25 30
61 26 1
61 27 24
61 28 65
61 29 18
61 30 37
61 31 63
61 32 8
61 33 79
61 34 27
61 35 2
61 36 50
61 37 34
61 38 59
61 39 37
61 40 71
61 41 59
61 42 16
61 43 28
61 44 44
61 45 49
61 46 16
61 47 69
61 48 37
61 49 74
61 50 20
61 51 35
61 52 31
61 53 76
61 54 54
61 55 38
61 56 2
61 57 71
61 58 13
61 59 25
61 60 28
62 0 2
62 1 67
62 2 73
62 3 19
62 4 72
62 5 30
62 6 59
62 7 78
62 8 27
62 9 39
62 10 66
62 11 9
62 12 2
62 13 52
62 14 65
62 15 50
62 16 15
62 17 4
62 18 59
62 19 50
62 20 45
62 21 3
62 22 50
62 23 66
62 24 32
62 25 49
62 26 22
62 27 46
62 28 50
62 29 55
62 30 59
62 31 21
62 32 15
62 33 10
62 34 33
62 35 19
62 36 9
62 37 80
62 38 59
62 39 54
62 40 1
62 41 17
62 42 79
62 43 8
62 44 71
62 45 59
62 46 40
62 47 18
62 48 49
62 49 3
62 50 29
62 51 44
62 52 30
62 53 26
62 54 49
62 55 71
62 56 71
62 57 68
62 58 20
62 59 49
62 60 25
62 61 18
63 0 44
63 1 30
63 2 5
63 3 51
63 4 58
63 5 45
63 6 79
63 7 36
63 8 68
63 9 72
63 10 53
63 11 27
63 12 35
63 13 53
63 14 47
63 15 14
63 16 16
63 17 50
63 18 64
63 19 20
63 20 74
63 21 58
63 22 80
63 23 41
63 24 39
63 25 75
63 26 17
63 27 76
63 28 20
63 29 73
63 30 61
63 31 20
63 32 52
63 33 25
63 34 57
63 35 33
63 36 46
63 37 11
63 38 41
63 39 75
63 40 55
63 41 7
63 42 20
63 43 58
63 44 15
63 45 77
63 46 43
63 47 68
63 48 22
63 49 64
63 50 39
63 51 70
63 52 38
63 53 76
63 54 63
63 55 22
63 56 53
63 57 36
63 58 4
63 59 17
63 60 20
63 61 35
63 62 1
64 0 55
64 1 11
64 2 25
64 3 6
64 4 74
64 5 6
64 6 2
64 7 35
64 8 24
64 9 63
64 10 54
64 11 51
64 12 23
64 13 77
64 14 17
64 15 37
64 16 33
64 17 65
64 18 7
64 19 30
64 20 67
64 21 1
64 22 73
64 23 75
64 24 22
64 25 7
64 26 54
64 27 1
64 28 28
64 29 42
64 30 4
64 31 41
64 32 48
64 33 31
64 34 60
64 35 11
64 36 58
64 37 76
64 38 1
64 39 34
64 40 51
64 41 64
64 42 51
64 43 62
64 44 55
64 45 28
64 46 25
64 47 42
64 48 78
64 49 61
64 50 69
64 51 20
64 52 38
64 53 58
64 54 76
64 55 52
64 56 61
64 57 30
64 58 23
64 59 72
64 60 12
64 61 61
64 62 7
64 63 17
65 0 65
65 1 18
65 2 69
65 3 5
65 4 7
65 5 50
65 6 28
65 7 20
65 8 3
65 9 47
65 10 23
65 11 67
65 12 1
65 13 77
65 14 38
65 15 43
65 16 58
65 17 12
65 18 11
65 19 14
65 20 13
65 21 5
65 22 52
65 23 22
65 24 19
65 25 77
65 26 5
65 27 64
65 28 10
65 29 22
65 30 7
65 31 65
65 32 45
65 33 9
65 34 32
65 35 27
65 36 55
65 37 32
65 38 29
65 39 72
65 40 10
65 41 36
65 42 62
65 43 29
65 44 28
65 45 46
65 46 75
65 47 7
65 48 51
65 49 11
65 50 23
65 51 52
65 52 1
65 53 80
65 54 39
65 55 39
65 56 14
65 57 23
65 58 42
65 59 21
65 60 13
65 61 7
65 62 32
65 63 65
65 64 15
66 0 22
66 1 20
66 2 78
66 3 17
66 4 51
66 5 10
66 6 62
66 7 65
66 8 19
66 9 71
66 10 36
66 11 44
66 12 24
66 13 48
66 14 54
66 15 7
66 16 24
66 17 52
66 18 57
66 19 41
66 20 5
66 21 41
66 22 34
66 23 47
66 24 73
66 25 48
66 26 36
66 27 14
66 28 14
66 29 69
66 30 60
66 31 63
66 32 68
66 33 11
66 34 51
66 35 8
66 36 71
66 37 8
66 38 64
66 39 72
66 40 40
66 41 48
66 42 71
66 43 62
66 44 57
66 45 51
66 46 72
66 47 43
66 48 53
66 49 19
66 50 14
66 51 12
66 52 49
66 53 3
66 54 70
66 55 59
66 56 54
66 57 20
66 58 26
66 59 63
66 60 45
66 61 36
66 62 28
66 63 67
66 64 8
66 65 20
67 0 64
67 1 8
67 2 5
67 3 65
67 4 50
67 5 62
67 6 55
67 7 64
67 8 25
67 9 20
67 10 6
67 11 19
67 12 50
67 13 12
67 14 76
67 15 27
67 16 58
67 17 10
67 18 72
67 19 17
67 20 32
67 21 61
67 22 71
67 23 13
67 24 59
67 25 76
67 26 38
67 27 74
67 28 51
67 29 70
67 30 38
67 31 72
67 32 72
67 33 79
67 34 45
67 35 38
67 36 61
67 37 2
67 38 22
67 39 72
67 40 30
67 41 68
67 42 32
67 43 15
67 44 7
67 45 40
67 46 55
67 47 16
67 48 8
67 49 78
67 50 23
67 51 60
67 52 39
67 53 29
67 54 38
67 55 33
67 56 53
67 57 52
67 58 44
67 59 42
67 60 9
67 61 12
67 62 69
67 63 15
67 64 39
67 65 17
67 66 39
68 0 56
68 1 60
68 2 8
68 3 71
68 4 41
68 5 69
68 6 63
68 7 56
68 8 44
68 9 9
68 10 15
68 11 30
68 12 54
68 13 18
68 14 17
68 15 29
68 16 43
68 17 59
68 18 36
68 19 8
68 20 7
68 21 23
68 22 41
68 23 74
68 24 45
68 25 75
68 26 22
68 27 54
68 28 52
68 29 35
68 30 45
68 31 58
68 32 7
68 33 23
68 34 2
68 35 43
68 36 10
68 37 74
68 38 23
68 39 5
68 40 27
68 41 17
68 42 40
68 43 52
68 44 73
68 45 33
68 46 2
68 47 10
68 48 26
68 49 80
68 50 62
68 51 30
68 52 75
68 53 18
68 54 37
68 55 36
68 56 12
68 57 3
68 58 71
68 59 5
68 60 74
68 61 1
68 62 61
68 63 14
68 64 76
68 65 34
68 66 78
68 67 57
69 0 56
69 1 13
69 2 14
69 3 69
69 4 11
69 5 63
69 6 7
69 7 34
69 8 76
69 9 36
69 10 72
69 11 11
69 12 30
69 13 44
69 14 49
69 15 77
69 16 7
69 17 48
69 18 36
69 19 64
69 20 64
69 21 24
69 22 26
69 23 80
69 24 32
69 25 9
69 26 18
69 27 66
69 28 72
69 29 53
69 30 78
69 31 44
69 32 31
69 33 65
69 34 50
69 35 71
69 36 65
69 37 20
69 38 50
69 39 7
69 40 36
69 41 67
69 42 24
69 43 53
69 44 9
69 45 17
69 46 35
69 47 62
69 48 51
69 49 24
69 50 1
69 51 53
69 52 7
69 53 59
69 54 20
69 55 42
69 56 70
69 57 27
69 58 51
69 59 1
69 60 46
69 61 15
69 62 46
69 63 2
69 64 13
69 65 72
69 66 59
69 67 41
69 68 8
